NAME : random_15
COMMENT : 60 random nodes
TYPE : TSP
DIMENSION : 60
EDGE_WEIGHT_TYPE : EUC_2D
NODE_COORD_SECTION
1 764 986
2 301 504
3 350 53
4 275 786
5 516 582
6 897 409
7 201 291
8 202 75
9 497 124
10 80 565
11 48 512
12 961 120
13 620 885
14 110 525
15 646 690
16 204 322
17 768 267
18 176 570
19 951 964
20 566 280
21 161 949
22 172 618
23 100 778
24 429 602
25 132 202
26 507 970
27 545 532
28 654 698
29 705 955
30 746 978
31 236 343
32 231 426
33 70 912
34 536 89
35 795 144
36 489 132
37 307 726
38 883 21
39 790 362
40 222 492
41 2 60
42 804 637
43 376 136
44 975 640
45 144 403
46 750 708
47 449 978
48 417 136
49 300 263
50 87 319
51 982 237
52 299 961
53 144 569
54 709 95
55 856 67
56 386 349
57 930 144
58 567 338
59 936 441
60 842 128
EOF